p cnf 35 99
a 30 31 0
e 1 2 3 4 5 6 7 8 9 10 11 12 13 14 15 16 17 18 19 20 21 22 23 24 25 26 27 28 29 32 33 34 35 0
4 -2 0
4 3 0
2 -3 -4 0
-6 -4 0
-6 5 0
4 -5 6 0
7 -1 0
7 -6 0
1 6 -7 0
-8 5 0
-8 2 0
-5 -2 8 0
-9 -8 0
-9 -3 0
8 3 9 0
7 -9 -10 0
-7 9 -10 0
7 9 10 0
-7 -9 10 0
-15 13 0
-15 -14 0
-13 14 15 0
12 15 -16 0
-12 -15 -16 0
12 -15 16 0
-12 15 16 0
17 11 0
17 16 0
-11 -16 -17 0
18 -12 0
18 -17 0
12 17 -18 0
19 -11 0
19 -18 0
11 18 -19 0
-20 10 0
-20 -19 0
-10 19 20 0
-21 13 0
-21 5 0
-13 -5 21 0
22 21 0
22 -14 0
-21 14 -22 0
-22 3 -23 0
22 -3 -23 0
-22 -3 23 0
22 3 23 0
24 13 0
24 2 0
-13 -2 -24 0
-25 13 0
-25 16 0
-13 -16 25 0
24 -25 -26 0
-24 25 -26 0
24 25 26 0
-24 -25 26 0
23 26 -27 0
-23 -26 -27 0
23 -26 27 0
-23 26 27 0
12 13 -28 0
-12 -13 -28 0
12 -13 28 0
-12 13 28 0
29 28 0
29 -16 0
-28 16 -29 0
30 -29 0
30 -12 0
29 12 -30 0
-27 -30 -31 0
27 30 -31 0
-27 30 31 0
27 -30 31 0
-32 -28 0
-32 12 0
28 -12 32 0
33 -8 0
33 32 0
8 -32 -33 0
-31 -33 -34 0
31 33 -34 0
-31 33 34 0
31 -33 34 0
35 -20 0
35 -34 0
20 34 -35 0
18 -13 -23 10 -26 8 0
-14 24 -18 27 -6 0
7 17 -33 -1 24 -22 0
34 24 -20 7 9 0
-28 -9 17 14 0
12 32 -25 24 -23 34 0
-6 -24 13 -19 32 12 0
27 -8 30 -20 24 0
3 13 -27 -9 1 -5 -30 0
35 0
